282 279 278 277 276 288 289 290 275 274 273 272 271 268 269 270 292 291 293 294 295 296 267 266 265 264 263 262 261 260 259 258 299 298 297 321 320 319 317 318 305 306 304 303 307 506 507 508 302 301 300 257 256 255 253 254 252 251 250 249 248 241 242 243 244 245 247 246 238 239 240 237 509 510 511 512 527 513 514 515 516 517 520 521 522 523 526 491 492 525 524 493 490 529 528 236 235 234 232 233 231 230 229 228 227 189 225 226 190 191 192 219 218 220 221 222 224 223 217 216 215 214 213 212 211 210 209 193 194 195 196 197 205 206 207 208 203 204 202 201 200 199 198 184 185 183 182 186 188 187 178 179 181 180 177 176 540 538 539 537 536 535 534 533 532 531 530 489 488 487 486 485 484 483 482 481 480 479 478 477 476 475 567 566 565 563 562 561 560 559 558 557 556 554 553 552 551 550 564 549 548 545 546 547 544 543 541 542 107 109 108 173 174 175 171 169 170 172 110 111 114 112 113 131 132 133 134 135 136 144 143 142 146 145 158 157 159 160 161 162 168 163 167 166 164 165 154 155 156 153 147 148 152 149 150 151 141 140 139 137 130 129 138 124 125 126 127 128 116 115 117 122 123 71 70 69 68 67 66 65 72 121 120 119 118 106 105 104 103 102 101 100 99 98 96 95 97 94 89 87 86 84 83 82 57 81 80 79 62 78 88 77 74 73 75 76 64 63 61 60 59 58 56 55 53 54 52 51 50 85 90 93 92 91 555 45 46 47 48 49 43 44 41 40 42 39 38 37 36 35 34 33 32 30 31 29 28 27 26 25 24 21 22 23 12 13 14 15 16 11 10 9 7 8 17 18 19 20 568 569 570 474 473 472 494 518 519 497 496 470 495 471 469 468 467 466 465 464 463 462 461 459 460 571 573 572 6 5 0 1 4 3 2 458 457 456 455 454 439 436 438 437 435 434 433 432 430 429 428 427 426 425 424 423 422 421 420 416 415 414 413 417 419 418 411 412 356 410 383 384 409 404 405 406 407 408 385 387 386 382 431 445 444 443 442 446 447 448 449 450 441 440 453 452 499 500 501 498 502 503 504 505 308 309 310 311 451 312 313 316 314 315 374 373 322 323 324 325 326 327 328 329 342 366 367 365 368 369 370 372 371 396 395 375 376 377 378 379 380 381 390 389 388 391 392 393 394 397 398 399 400 403 402 401 360 359 358 357 355 354 353 352 351 350 349 348 347 362 361 363 364 346 345 344 343 341 340 330 331 332 333 339 338 337 336 335 334 283 284 285 286 287 280 281